\* LP *\
Minimize
OBJ: 0.964837143823 a_0 + 0.450879501907 a_1 + 0.089941077354 a_10
 + 0.634579685915 a_11 + 0.876783513697 a_12 + 0.0492086944355 a_13
 + 0.211031433091 a_14 + 0.747379917049 a_15 + 0.735387855091 a_16
 + 0.229026455663 a_17 + 0.317281784784 a_18 + 0.813502874822 a_19
 + 0.164258865943 a_2 + 0.549358729238 a_20 + 0.396761251655 a_21
 + 0.401706967874 a_22 + 0.829331673445 a_23 + 0.329894384649 a_24
 + 0.541755232372 a_25 + 0.45879384672 a_26 + 0.794364094913 a_27
 + 0.0902348796836 a_28 + 0.654661382874 a_29 + 0.297616126984 a_3
 + 0.484858739927 a_30 + 0.711217727658 a_31 + 0.15513997701 a_32
 + 0.728043241863 a_33 + 0.478283958239 a_34 + 0.585443023478 a_35
 + 0.391388983011 a_36 + 0.75686029371 a_37 + 0.439618326974 a_38
 + 0.425157218593 a_39 + 0.994986271409 a_4 + 0.604210717961 a_40
 + 0.738807576797 a_41 + 0.371535439954 a_42 + 0.240523039265 a_43
 + 0.780712621916 a_44 + 0.674486951486 a_45 + 0.27865265615 a_46
 + 0.0431055354139 a_47 + 0.910194977784 a_48 + 0.567397853542 a_49
 + 0.301577668374 a_5 + 0.167222904658 a_50 + 0.154852317014 a_51
 + 0.98480195995 a_52 + 0.423746581619 a_53 + 0.0447196230236 a_54
 + 0.341189871508 a_55 + a_56 + 0.252084532223 a_57 + 0.0806579145654 a_58
 + 0.504577660202 a_59 + 0.0379873631005 a_6 + 0.954854243436 a_60
 + 0.0627965904654 a_61 + 0.2005264662 a_62 + 0.635208623354 a_63
 + 0.852086185306 a_64 + 0.132529570484 a_65 + 0.306872425781 a_66
 + 0.725389413669 a_67 + 0.697908924201 a_68 + 0.321814840417 a_69
 + 0.481635420702 a_7 + 0.392580952283 a_70 + 0.769995974562 a_71
 + 0.501650045969 a_72 + 0.493236895418 a_73 + 0.451906019925 a_74
 + 0.766766271965 a_75 + 0.275185109906 a_76 + 0.635968878162 a_77
 + 0.480850634625 a_78 + 0.716413362295 a_79 + 0.965066257309 a_8
 + 0.0322162675128 a_80 + 0.740862365732 a_81 + 0.477432309284 a_82
 + 0.622553253957 a_83 + 0.212560010216 a_84 + 0.801031587867 a_85
 + 0.441816356377 a_86 + 0.491453558804 a_87 + 0.444345364552 a_88
 + 0.812301700568 a_89 + 0.131399061297 a_9 + 0.376308158582 a_90
 + 0.331620014013 a_91 + 0.649137753475 a_92 + 0.773492124016 a_93
 + 0.285204760341 a_94 + 0.153247897008 a_95 + 0.814580713604 a_96
 + 0.686516022842 a_97 + 0.174515291613 a_98 + 0.0324264547077 a_99
Subject To
c_0_neg: a_0 - 6.28318530718 k_0 + p >= -3.14159265359
c_0_pos: a_0 + 6.28318530718 k_0 - p >= 3.14159265359
c_10_neg: a_10 + 0.532018044501 f - 5.32018044501 k_10 + 0.846733015965 p >= 0
c_10_pos: a_10 - 0.532018044501 f + 5.32018044501 k_10 - 0.846733015965 p >= 0
c_11_neg: a_11 + 0.568566221769 f - 5.16878383426 k_11 + 0.822637496996 p >= 0
c_11_pos: a_11 - 0.568566221769 f + 5.16878383426 k_11 - 0.822637496996 p >= 0
c_12_neg: a_12 + 0.602033067592 f - 5.01694222993 k_12 + 0.7984711551 p >= 0
c_12_pos: a_12 - 0.602033067592 f + 5.01694222993 k_12 - 0.7984711551 p >= 0
c_13_neg: a_13 + 0.632603062459 f - 4.86617740353 k_13 + 0.774476187734 p
 >= -2.43308870177
c_13_pos: a_13 - 0.632603062459 f + 4.86617740353 k_13 - 0.774476187734 p
 >= 2.43308870177
c_14_neg: a_14 + 0.660478060926 f - 4.71770043518 k_14 + 0.750845344286 p
 >= -2.35885021759
c_14_pos: a_14 - 0.660478060926 f + 4.71770043518 k_14 - 0.750845344286 p
 >= 2.35885021759
c_15_neg: a_15 + 0.685866711946 f - 4.57244474631 k_15 + 0.72772718339 p
 >= -2.28622237315
c_15_pos: a_15 - 0.685866711946 f + 4.57244474631 k_15 - 0.72772718339 p
 >= 2.28622237315
c_16_neg: a_16 + 0.708976569838 f - 4.43110356149 k_16 + 0.705232035163 p
 >= -2.21555178074
c_16_pos: a_16 - 0.708976569838 f + 4.43110356149 k_16 - 0.705232035163 p
 >= 2.21555178074
c_17_neg: a_17 + 0.730008529142 f - 4.29416781848 k_17 + 0.683438034777 p >= 0
c_17_pos: a_17 - 0.730008529142 f + 4.29416781848 k_17 - 0.683438034777 p >= 0
c_18_neg: a_18 + 0.749153155785 f - 4.16196197658 k_18 + 0.662396821534 p >= 0
c_18_pos: a_18 - 0.749153155785 f + 4.16196197658 k_18 - 0.662396821534 p >= 0
c_19_neg: a_19 + 0.766588495417 f - 4.03467629167 k_19 + 0.642138675595 p >= 0
c_19_pos: a_19 - 0.766588495417 f + 4.03467629167 k_19 - 0.642138675595 p >= 0
c_1_neg: a_1 + 0.0627081939847 f - 6.27081939847 k_1 + 0.998031904504 p
 >= -3.13540969924
c_1_pos: a_1 - 0.0627081939847 f + 6.27081939847 k_1 - 0.998031904504 p
 >= 3.13540969924
c_20_neg: a_20 + 0.782478985827 f - 3.91239492913 k_20 + 0.622676992299 p >= 0
c_20_pos: a_20 - 0.782478985827 f + 3.91239492913 k_20 - 0.622676992299 p >= 0
c_21_neg: a_21 + 0.796975161915 f - 3.79511981864 k_21 + 0.604012078763 p
 >= -1.89755990932
c_21_pos: a_21 - 0.796975161915 f + 3.79511981864 k_21 - 0.604012078763 p
 >= 1.89755990932
c_22_neg: a_22 + 0.810213905064 f - 3.68279047756 k_22 + 0.586134308876 p
 >= -1.84139523878
c_22_pos: a_22 - 0.810213905064 f + 3.68279047756 k_22 - 0.586134308876 p
 >= 1.84139523878
c_23_neg: a_23 + 0.822319046585 f - 3.57530020254 k_23 + 0.569026700272 p
 >= -1.78765010127
c_23_pos: a_23 - 0.822319046585 f + 3.57530020254 k_23 - 0.569026700272 p
 >= 1.78765010127
c_24_neg: a_24 + 0.833402183942 f - 3.47250909976 k_24 + 0.552666988158 p
 >= -1.73625454988
c_24_pos: a_24 - 0.833402183942 f + 3.47250909976 k_24 - 0.552666988158 p
 >= 1.73625454988
c_25_neg: a_25 + 0.843563608069 f - 3.37425443228 k_25 + 0.537029272146 p >= 0
c_25_pos: a_25 - 0.843563608069 f + 3.37425443228 k_25 - 0.537029272146 p >= 0
c_26_neg: a_26 + 0.852893270888 f - 3.28035873418 k_26 + 0.52208530766 p >= 0
c_26_pos: a_26 - 0.852893270888 f + 3.28035873418 k_26 - 0.52208530766 p >= 0
c_27_neg: a_27 + 0.861471745389 f - 3.19063609403 k_27 + 0.507805505973 p >= 0
c_27_pos: a_27 - 0.861471745389 f + 3.19063609403 k_27 - 0.507805505973 p >= 0
c_28_neg: a_28 + 0.869371147732 f - 3.10489695619 k_28 + 0.494159698368 p >= 0
c_28_pos: a_28 - 0.869371147732 f + 3.10489695619 k_28 - 0.494159698368 p >= 0
c_29_neg: a_29 + 0.876656003134 f - 3.02295173494 k_29 + 0.481117711345 p
 >= -1.51147586747
c_29_pos: a_29 - 0.876656003134 f + 3.02295173494 k_29 - 0.481117711345 p
 >= 1.51147586747
c_2_neg: a_2 + 0.124683103913 f - 6.23415519567 k_2 + 0.992196615394 p
 >= -3.11707759784
c_2_pos: a_2 - 0.124683103913 f + 6.23415519567 k_2 - 0.992196615394 p
 >= 3.11707759784
c_30_neg: a_30 + 0.883384045923 f - 2.94461348641 k_30 + 0.468649791857 p
 >= -1.47230674321
c_30_pos: a_30 - 0.883384045923 f + 2.94461348641 k_30 - 0.468649791857 p
 >= 1.47230674321
c_31_neg: a_31 + 0.889606950029 f - 2.8696998388 k_31 + 0.456726914535 p
 >= -1.4348499194
c_31_pos: a_31 - 0.889606950029 f + 2.8696998388 k_31 - 0.456726914535 p
 >= 1.4348499194
c_32_neg: a_32 + 0.895370990054 f - 2.79803434392 k_32 + 0.445320996776 p >= 0
c_32_pos: a_32 - 0.895370990054 f + 2.79803434392 k_32 - 0.445320996776 p >= 0
c_33_neg: a_33 + 0.900717635574 f - 2.72944738053 k_33 + 0.43440504252 p >= 0
c_33_pos: a_33 - 0.900717635574 f + 2.72944738053 k_33 - 0.43440504252 p >= 0
c_34_neg: a_34 + 0.905684082707 f - 2.66377671384 k_34 + 0.423953231301 p >= 0
c_34_pos: a_34 - 0.905684082707 f + 2.66377671384 k_34 - 0.423953231301 p >= 0
c_35_neg: a_35 + 0.910303727832 f - 2.60086779381 k_35 + 0.413940965713 p >= 0
c_35_pos: a_35 - 0.910303727832 f + 2.60086779381 k_35 - 0.413940965713 p >= 0
c_36_neg: a_36 + 0.914606588557 f - 2.5405738571 k_36 + 0.404344887648 p
 >= -1.27028692855
c_36_pos: a_36 - 0.914606588557 f + 2.5405738571 k_36 - 0.404344887648 p
 >= 1.27028692855
c_37_neg: a_37 + 0.918619677098 f - 2.48275588405 k_37 + 0.395142871437 p
 >= -1.24137794202
c_37_pos: a_37 - 0.918619677098 f + 2.48275588405 k_37 - 0.395142871437 p
 >= 1.24137794202
c_38_neg: a_38 + 0.922367330979 f - 2.42728244995 k_38 + 0.386314000189 p
 >= -1.21364122497
c_38_pos: a_38 - 0.922367330979 f + 2.42728244995 k_38 - 0.386314000189 p
 >= 1.21364122497
c_39_neg: a_39 + 0.925871505694 f - 2.37402950178 k_39 + 0.377838530254 p
 >= -1.18701475089
c_39_pos: a_39 - 0.925871505694 f + 2.37402950178 k_39 - 0.377838530254 p
 >= 1.18701475089
c_3_neg: a_3 + 0.18523355412 f - 6.174451804 k_3 + 0.98269452549 p >= 0
c_3_pos: a_3 - 0.18523355412 f + 6.174451804 k_3 - 0.98269452549 p >= 0
c_40_neg: a_40 + 0.929152033578 f - 2.32288008395 k_40 + 0.36969784757 p >= 0
c_40_pos: a_40 - 0.929152033578 f + 2.32288008395 k_40 - 0.36969784757 p >= 0
c_41_neg: a_41 + 0.932226852772 f - 2.27372403115 k_41 + 0.361874418785 p >= 0
c_41_pos: a_41 - 0.932226852772 f + 2.27372403115 k_41 - 0.361874418785 p >= 0
c_42_neg: a_42 + 0.935112209748 f - 2.22645764226 k_42 + 0.35435173935 p >= 0
c_42_pos: a_42 - 0.935112209748 f + 2.22645764226 k_42 - 0.35435173935 p >= 0
c_43_neg: a_43 + 0.937822838528 f - 2.18098334541 k_43 + 0.347114280224 p >= 0
c_43_pos: a_43 - 0.937822838528 f + 2.18098334541 k_43 - 0.347114280224 p >= 0
c_44_neg: a_44 + 0.940372119356 f - 2.13720936217 k_44 + 0.340147434412 p
 >= -1.06860468109
c_44_pos: a_44 - 0.940372119356 f + 2.13720936217 k_44 - 0.340147434412 p
 >= 1.06860468109
c_45_neg: a_45 + 0.942772219278 f - 2.09504937617 k_45 + 0.333437464239 p
 >= -1.04752468809
c_45_pos: a_45 - 0.942772219278 f + 2.09504937617 k_45 - 0.333437464239 p
 >= 1.04752468809
c_46_neg: a_46 + 0.945034216786 f - 2.0544222104 k_46 + 0.326971449984 p
 >= -1.0272111052
c_46_pos: a_46 - 0.945034216786 f + 2.0544222104 k_46 - 0.326971449984 p
 >= 1.0272111052
c_47_neg: a_47 + 0.947168212448 f - 2.01525151585 k_47 + 0.32073724032 p
 >= -1.00762575792
c_47_pos: a_47 - 0.947168212448 f + 2.01525151585 k_47 - 0.32073724032 p
 >= 1.00762575792
c_48_neg: a_48 + 0.949183427178 f - 1.97746547329 k_48 + 0.314723404867 p >= 0
c_48_pos: a_48 - 0.949183427178 f + 1.97746547329 k_48 - 0.314723404867 p >= 0
c_49_neg: a_49 + 0.951088289627 f - 1.94099650944 k_49 + 0.308919189002 p >= 0
c_49_pos: a_49 - 0.951088289627 f + 1.94099650944 k_49 - 0.308919189002 p >= 0
c_4_neg: a_4 + 0.24374708386 f - 6.09367709649 k_4 + 0.969838831513 p >= 0
c_4_pos: a_4 - 0.24374708386 f + 6.09367709649 k_4 - 0.969838831513 p >= 0
c_50_neg: a_50 + 0.952890513989 f - 1.90578102798 k_50 + 0.303314471053 p >= 0
c_50_pos: a_50 - 0.952890513989 f + 1.90578102798 k_50 - 0.303314471053 p >= 0
c_51_neg: a_51 + 0.954597169334 f - 1.87175915556 k_51 + 0.297899721884 p
 >= -0.935879577779
c_51_pos: a_51 - 0.954597169334 f + 1.87175915556 k_51 - 0.297899721884 p
 >= 0.935879577779
c_52_neg: a_52 + 0.956214741491 f - 1.83887450287 k_52 + 0.292665966857 p
 >= -0.919437251433
c_52_pos: a_52 - 0.956214741491 f + 1.83887450287 k_52 - 0.292665966857 p
 >= 0.919437251433
c_53_neg: a_53 + 0.957749188311 f - 1.80707394021 k_53 + 0.287604750117 p
 >= -0.903536970105
c_53_pos: a_53 - 0.957749188311 f + 1.80707394021 k_53 - 0.287604750117 p
 >= 0.903536970105
c_54_neg: a_54 + 0.959205989115 f - 1.77630738725 k_54 + 0.282708101132 p
 >= -0.888153693625
c_54_pos: a_54 - 0.959205989115 f + 1.77630738725 k_54 - 0.282708101132 p
 >= 0.888153693625
c_55_neg: a_55 + 0.960590188961 f - 1.74652761629 k_55 + 0.27796850338 p >= 0
c_55_pos: a_55 - 0.960590188961 f + 1.74652761629 k_55 - 0.27796850338 p >= 0
c_56_neg: a_56 + 0.961906438339 f - 1.71769006846 k_56 + 0.273378865096 p >= 0
c_56_pos: a_56 - 0.961906438339 f + 1.71769006846 k_56 - 0.273378865096 p >= 0
c_57_neg: a_57 + 0.963159028804 f - 1.68975268211 k_57 + 0.268932491961 p >= 0
c_57_pos: a_57 - 0.963159028804 f + 1.68975268211 k_57 - 0.268932491961 p >= 0
c_58_neg: a_58 + 0.964351925002 f - 1.66267573276 k_58 + 0.264623061628 p
 >= -0.831337866381
c_58_pos: a_58 - 0.964351925002 f + 1.66267573276 k_58 - 0.264623061628 p
 >= 0.831337866381
c_59_neg: a_59 + 0.965488793485 f - 1.63642168387 k_59 + 0.260444599971 p
 >= -0.818210841937
c_59_pos: a_59 - 0.965488793485 f + 1.63642168387 k_59 - 0.260444599971 p
 >= 0.818210841937
c_5_neg: a_5 + 0.299716803589 f - 5.99433607178 k_5 + 0.954028216378 p >= 0
c_5_pos: a_5 - 0.299716803589 f + 5.99433607178 k_5 - 0.954028216378 p >= 0
c_60_neg: a_60 + 0.966573028681 f - 1.6109550478 k_60 + 0.256391458957 p
 >= -0.805477523901
c_60_pos: a_60 - 0.966573028681 f + 1.6109550478 k_60 - 0.256391458957 p
 >= 0.805477523901
c_61_neg: a_61 + 0.967607776307 f - 1.58624225624 k_61 + 0.252458296022 p
 >= -0.79312112812
c_61_pos: a_61 - 0.967607776307 f + 1.58624225624 k_61 - 0.252458296022 p
 >= 0.79312112812
c_62_neg: a_62 + 0.96859595452 f - 1.56225153955 k_62 + 0.248640054872 p >= 0
c_62_pos: a_62 - 0.96859595452 f + 1.56225153955 k_62 - 0.248640054872 p >= 0
c_63_neg: a_63 + 0.969540273042 f - 1.53895281435 k_63 + 0.244931947589 p >= 0
c_63_pos: a_63 - 0.969540273042 f + 1.53895281435 k_63 - 0.244931947589 p >= 0
c_64_neg: a_64 + 0.970443250463 f - 1.51631757885 k_64 + 0.241329437971 p >= 0
c_64_pos: a_64 - 0.970443250463 f + 1.51631757885 k_64 - 0.241329437971 p >= 0
c_65_neg: a_65 + 0.97130722993 f - 1.49431881528 k_65 + 0.237828226007 p
 >= -0.747159407639
c_65_pos: a_65 - 0.97130722993 f + 1.49431881528 k_65 - 0.237828226007 p
 >= 0.747159407639
c_66_neg: a_66 + 0.972134393377 f - 1.47293089906 k_66 + 0.234424233418 p
 >= -0.736465449528
c_66_pos: a_66 - 0.972134393377 f + 1.47293089906 k_66 - 0.234424233418 p
 >= 0.736465449528
c_67_neg: a_67 + 0.972926774446 f - 1.4521295141 k_67 + 0.231113590179 p
 >= -0.72606475705
c_67_pos: a_67 - 0.972926774446 f + 1.4521295141 k_67 - 0.231113590179 p
 >= 0.72606475705
c_68_neg: a_68 + 0.973686270242 f - 1.43189157389 k_68 + 0.227892621956 p
 >= -0.715945786943
c_68_pos: a_68 - 0.973686270242 f + 1.43189157389 k_68 - 0.227892621956 p
 >= 0.715945786943
c_69_neg: a_69 + 0.974414652025 f - 1.41219514786 k_69 + 0.224757838393 p >= 0
c_69_pos: a_69 - 0.974414652025 f + 1.41219514786 k_69 - 0.224757838393 p >= 0
c_6_neg: a_6 + 0.352756327426 f - 5.87927212376 k_6 + 0.935715220279 p >= 0
c_6_pos: a_6 - 0.352756327426 f + 5.87927212376 k_6 - 0.935715220279 p >= 0
c_70_neg: a_70 + 0.975113574958 f - 1.3930193928 k_70 + 0.221705922187 p >= 0
c_70_pos: a_70 - 0.975113574958 f + 1.3930193928 k_70 - 0.221705922187 p >= 0
c_71_neg: a_71 + 0.975784586996 f - 1.37434448873 k_71 + 0.218733718892 p >= 0
c_71_pos: a_71 - 0.975784586996 f + 1.37434448873 k_71 - 0.218733718892 p >= 0
c_72_neg: a_72 + 0.976429137004 f - 1.35615157917 k_72 + 0.215838227407 p >= 0
c_72_pos: a_72 - 0.976429137004 f + 1.35615157917 k_72 - 0.215838227407 p >= 0
c_73_neg: a_73 + 0.977048582171 f - 1.3384227153 k_73 + 0.213016591087 p
 >= -0.669211357651
c_73_pos: a_73 - 0.977048582171 f + 1.3384227153 k_73 - 0.213016591087 p
 >= 0.669211357651
c_74_neg: a_74 + 0.977644194802 f - 1.32114080379 k_74 + 0.210266089443 p
 >= -0.660570401893
c_74_pos: a_74 - 0.977644194802 f + 1.32114080379 k_74 - 0.210266089443 p
 >= 0.660570401893
c_75_neg: a_75 + 0.978217168533 f - 1.30428955804 k_75 + 0.207584130386 p
 >= -0.652144779022
c_75_pos: a_75 - 0.978217168533 f + 1.30428955804 k_75 - 0.207584130386 p
 >= 0.652144779022
c_76_neg: a_76 + 0.978768624024 f - 1.28785345266 k_76 + 0.204968242969 p
 >= -0.643926726332
c_76_pos: a_76 - 0.978768624024 f + 1.28785345266 k_76 - 0.204968242969 p
 >= 0.643926726332
c_77_neg: a_77 + 0.979299614194 f - 1.27181768077 k_77 + 0.202416070606 p >= 0
c_77_pos: a_77 - 0.979299614194 f + 1.27181768077 k_77 - 0.202416070606 p >= 0
c_78_neg: a_78 + 0.979811129016 f - 1.25616811412 k_78 + 0.199925364717 p >= 0
c_78_pos: a_78 - 0.979811129016 f + 1.25616811412 k_78 - 0.199925364717 p >= 0
c_79_neg: a_79 + 0.980304099933 f - 1.24089126574 k_79 + 0.197493978782 p >= 0
c_79_pos: a_79 - 0.980304099933 f + 1.24089126574 k_79 - 0.197493978782 p >= 0
c_7_neg: a_7 + 0.402602846248 f - 5.75146923212 k_7 + 0.915374758333 p
 >= -2.87573461606
c_7_pos: a_7 - 0.402602846248 f + 5.75146923212 k_7 - 0.915374758333 p
 >= 2.87573461606
c_80_neg: a_80 + 0.980779403919 f - 1.2259742549 k_80 + 0.195119862771 p >= 0
c_80_pos: a_80 - 0.980779403919 f + 1.2259742549 k_80 - 0.195119862771 p >= 0
c_81_neg: a_81 + 0.981237867219 f - 1.21140477434 k_81 + 0.192801057922 p
 >= -0.605702387172
c_81_pos: a_81 - 0.981237867219 f + 1.21140477434 k_81 - 0.192801057922 p
 >= 0.605702387172
c_82_neg: a_82 + 0.981680268791 f - 1.1971710595 k_82 + 0.190535691846 p
 >= -0.59858552975
c_82_pos: a_82 - 0.981680268791 f + 1.1971710595 k_82 - 0.190535691846 p
 >= 0.59858552975
c_83_neg: a_83 + 0.982107343489 f - 1.18326185963 k_83 + 0.188321973931 p
 >= -0.591630929813
c_83_pos: a_83 - 0.982107343489 f + 1.18326185963 k_83 - 0.188321973931 p
 >= 0.591630929813
c_84_neg: a_84 + 0.982519784997 f - 1.16966641071 k_84 + 0.186158191033 p >= 0
c_84_pos: a_84 - 0.982519784997 f + 1.16966641071 k_84 - 0.186158191033 p >= 0
c_85_neg: a_85 + 0.982918248542 f - 1.15637441005 k_85 + 0.184042703424 p >= 0
c_85_pos: a_85 - 0.982918248542 f + 1.15637441005 k_85 - 0.184042703424 p >= 0
c_86_neg: a_86 + 0.983303353396 f - 1.14337599232 k_86 + 0.181973940991 p >= 0
c_86_pos: a_86 - 0.983303353396 f + 1.14337599232 k_86 - 0.181973940991 p >= 0
c_87_neg: a_87 + 0.983675685205 f - 1.13066170713 k_87 + 0.179950399655 p >= 0
c_87_pos: a_87 - 0.983675685205 f + 1.13066170713 k_87 - 0.179950399655 p >= 0
c_88_neg: a_88 + 0.984035798132 f - 1.11822249788 k_88 + 0.177970638014 p
 >= -0.559111248939
c_88_pos: a_88 - 0.984035798132 f + 1.11822249788 k_88 - 0.177970638014 p
 >= 0.559111248939
c_89_neg: a_89 + 0.98438421685 f - 1.10604968185 k_89 + 0.176033274172 p
 >= -0.553024840927
c_89_pos: a_89 - 0.98438421685 f + 1.10604968185 k_89 - 0.176033274172 p
 >= 0.553024840927
c_8_neg: a_8 + 0.449110207418 f - 5.61387759272 k_8 + 0.893476368794 p
 >= -2.80693879636
c_8_pos: a_8 - 0.449110207418 f + 5.61387759272 k_8 - 0.893476368794 p
 >= 2.80693879636
c_90_neg: a_90 + 0.984721438394 f - 1.09413493155 k_90 + 0.174136982766 p
 >= -0.547067465775
c_90_pos: a_90 - 0.984721438394 f + 1.09413493155 k_90 - 0.174136982766 p
 >= 0.547067465775
c_91_neg: a_91 + 0.985047933871 f - 1.082470257 k_91 + 0.172280492152 p
 >= -0.541235128501
c_91_pos: a_91 - 0.985047933871 f + 1.082470257 k_91 - 0.172280492152 p
 >= 0.541235128501
c_92_neg: a_92 + 0.985364150057 f - 1.07104798919 k_92 + 0.170462581769 p >= 0
c_92_pos: a_92 - 0.985364150057 f + 1.07104798919 k_92 - 0.170462581769 p >= 0
c_93_neg: a_93 + 0.985670510875 f - 1.05986076438 k_93 + 0.16868207964 p >= 0
c_93_pos: a_93 - 0.985670510875 f + 1.05986076438 k_93 - 0.16868207964 p >= 0
c_94_neg: a_94 + 0.985967418777 f - 1.04890150934 k_94 + 0.166937860028 p >= 0
c_94_pos: a_94 - 0.985967418777 f + 1.04890150934 k_94 - 0.166937860028 p >= 0
c_95_neg: a_95 + 0.986255256023 f - 1.03816342739 k_95 + 0.165228841207 p >= 0
c_95_pos: a_95 - 0.986255256023 f + 1.03816342739 k_95 - 0.165228841207 p >= 0
c_96_neg: a_96 + 0.986534385879 f - 1.02763998529 k_96 + 0.163553983378 p
 >= -0.513819992645
c_96_pos: a_96 - 0.986534385879 f + 1.02763998529 k_96 - 0.163553983378 p
 >= 0.513819992645
c_97_neg: a_97 + 0.986805153726 f - 1.01732490075 k_97 + 0.161912286685 p
 >= -0.508662450374
c_97_pos: a_97 - 0.986805153726 f + 1.01732490075 k_97 - 0.161912286685 p
 >= 0.508662450374
c_98_neg: a_98 + 0.987067888105 f - 1.00721213072 k_98 + 0.160302789346 p
 >= -0.50360606536
c_98_pos: a_98 - 0.987067888105 f + 1.00721213072 k_98 - 0.160302789346 p
 >= 0.50360606536
c_99_neg: a_99 + 0.987322901681 f - 0.997295860284 k_99 + 0.158724565889 p
 >= 0
c_99_pos: a_99 - 0.987322901681 f + 0.997295860284 k_99 - 0.158724565889 p
 >= 0
c_9_neg: a_9 + 0.492234896171 f - 5.46927662413 k_9 + 0.870462409867 p
 >= -2.73463831206
c_9_pos: a_9 - 0.492234896171 f + 5.46927662413 k_9 - 0.870462409867 p
 >= 2.73463831206
Bounds
a_0 <= 1
a_1 <= 2
a_10 <= 11
a_11 <= 12
a_12 <= 13
a_13 <= 14
a_14 <= 15
a_15 <= 16
a_16 <= 17
a_17 <= 18
a_18 <= 19
a_19 <= 20
a_2 <= 3
a_20 <= 21
a_21 <= 22
a_22 <= 23
a_23 <= 24
a_24 <= 25
a_25 <= 26
a_26 <= 27
a_27 <= 28
a_28 <= 29
a_29 <= 30
a_3 <= 4
a_30 <= 31
a_31 <= 32
a_32 <= 33
a_33 <= 34
a_34 <= 35
a_35 <= 36
a_36 <= 37
a_37 <= 38
a_38 <= 39
a_39 <= 40
a_4 <= 5
a_40 <= 41
a_41 <= 42
a_42 <= 43
a_43 <= 44
a_44 <= 45
a_45 <= 46
a_46 <= 47
a_47 <= 48
a_48 <= 49
a_49 <= 50
a_5 <= 6
a_50 <= 51
a_51 <= 52
a_52 <= 53
a_53 <= 54
a_54 <= 55
a_55 <= 56
a_56 <= 57
a_57 <= 58
a_58 <= 59
a_59 <= 60
a_6 <= 7
a_60 <= 61
a_61 <= 62
a_62 <= 63
a_63 <= 64
a_64 <= 65
a_65 <= 66
a_66 <= 67
a_67 <= 68
a_68 <= 69
a_69 <= 70
a_7 <= 8
a_70 <= 71
a_71 <= 72
a_72 <= 73
a_73 <= 74
a_74 <= 75
a_75 <= 76
a_76 <= 77
a_77 <= 78
a_78 <= 79
a_79 <= 80
a_8 <= 9
a_80 <= 81
a_81 <= 82
a_82 <= 83
a_83 <= 84
a_84 <= 85
a_85 <= 86
a_86 <= 87
a_87 <= 88
a_88 <= 89
a_89 <= 90
a_9 <= 10
a_90 <= 91
a_91 <= 92
a_92 <= 93
a_93 <= 94
a_94 <= 95
a_95 <= 96
a_96 <= 97
a_97 <= 98
a_98 <= 99
a_99 <= 100
f <= 50
0 <= k_1 <= 2
0 <= k_10 <= 11
0 <= k_11 <= 12
0 <= k_12 <= 13
0 <= k_13 <= 14
0 <= k_14 <= 15
0 <= k_15 <= 16
0 <= k_16 <= 17
0 <= k_17 <= 18
0 <= k_18 <= 19
0 <= k_19 <= 20
0 <= k_2 <= 3
0 <= k_20 <= 21
0 <= k_21 <= 22
0 <= k_22 <= 23
0 <= k_23 <= 24
0 <= k_24 <= 25
0 <= k_25 <= 26
0 <= k_26 <= 27
0 <= k_27 <= 28
0 <= k_28 <= 29
0 <= k_29 <= 30
0 <= k_3 <= 4
0 <= k_30 <= 31
0 <= k_31 <= 32
0 <= k_32 <= 33
0 <= k_33 <= 34
0 <= k_34 <= 35
0 <= k_35 <= 36
0 <= k_36 <= 37
0 <= k_37 <= 38
0 <= k_38 <= 39
0 <= k_39 <= 40
0 <= k_4 <= 5
0 <= k_40 <= 41
0 <= k_41 <= 42
0 <= k_42 <= 43
0 <= k_43 <= 44
0 <= k_44 <= 45
0 <= k_45 <= 46
0 <= k_46 <= 47
0 <= k_47 <= 48
0 <= k_48 <= 49
0 <= k_49 <= 50
0 <= k_5 <= 6
0 <= k_50 <= 51
0 <= k_51 <= 52
0 <= k_52 <= 53
0 <= k_53 <= 54
0 <= k_54 <= 55
0 <= k_55 <= 56
0 <= k_56 <= 57
0 <= k_57 <= 58
0 <= k_58 <= 59
0 <= k_59 <= 60
0 <= k_6 <= 7
0 <= k_60 <= 61
0 <= k_61 <= 62
0 <= k_62 <= 63
0 <= k_63 <= 64
0 <= k_64 <= 65
0 <= k_65 <= 66
0 <= k_66 <= 67
0 <= k_67 <= 68
0 <= k_68 <= 69
0 <= k_69 <= 70
0 <= k_7 <= 8
0 <= k_70 <= 71
0 <= k_71 <= 72
0 <= k_72 <= 73
0 <= k_73 <= 74
0 <= k_74 <= 75
0 <= k_75 <= 76
0 <= k_76 <= 77
0 <= k_77 <= 78
0 <= k_78 <= 79
0 <= k_79 <= 80
0 <= k_8 <= 9
0 <= k_80 <= 81
0 <= k_81 <= 82
0 <= k_82 <= 83
0 <= k_83 <= 84
0 <= k_84 <= 85
0 <= k_85 <= 86
0 <= k_86 <= 87
0 <= k_87 <= 88
0 <= k_88 <= 89
0 <= k_89 <= 90
0 <= k_9 <= 10
0 <= k_90 <= 91
0 <= k_91 <= 92
0 <= k_92 <= 93
0 <= k_93 <= 94
0 <= k_94 <= 95
0 <= k_95 <= 96
0 <= k_96 <= 97
0 <= k_97 <= 98
0 <= k_98 <= 99
0 <= k_99 <= 100
p <= 6.28318530718
Generals
k_1
k_10
k_11
k_12
k_13
k_14
k_15
k_16
k_17
k_18
k_19
k_2
k_20
k_21
k_22
k_23
k_24
k_25
k_26
k_27
k_28
k_29
k_3
k_30
k_31
k_32
k_33
k_34
k_35
k_36
k_37
k_38
k_39
k_4
k_40
k_41
k_42
k_43
k_44
k_45
k_46
k_47
k_48
k_49
k_5
k_50
k_51
k_52
k_53
k_54
k_55
k_56
k_57
k_58
k_59
k_6
k_60
k_61
k_62
k_63
k_64
k_65
k_66
k_67
k_68
k_69
k_7
k_70
k_71
k_72
k_73
k_74
k_75
k_76
k_77
k_78
k_79
k_8
k_80
k_81
k_82
k_83
k_84
k_85
k_86
k_87
k_88
k_89
k_9
k_90
k_91
k_92
k_93
k_94
k_95
k_96
k_97
k_98
k_99
Binaries
k_0
End
